(declare-const a Real)
(declare-const b Real)
(declare-const c Real)
(assert (= (+ a b c) 3))
(assert (> a 0))
(assert (> b 0))
(assert (> c 0))
(assert (not (<= (+ (* (pow (+ (* 7650410496 (pow a 3)) (* 2013265920 (pow b 3) (pow c 2)) (* 2818572288 (pow a 2) (pow b 3)) (* 2818572288 (pow b 2) (pow c 3)) (* 95551488 c (pow a 2) (pow b 2)) (* 7516192768 a b (pow c 3))) -1) (pow (+ (* 2013265920 (pow b 3) (pow c 2)) (* 2818572288 (pow a 2) (pow b 3)) (* 2818572288 (pow b 2) (pow c 3)) (* 7650410496 c (pow a 3)) (* 95551488 c (pow a 2) (pow b 2)) (* 7516192768 a b (pow c 3))) 2)) (* -9261023232 a (pow c 4)) (* -9261023232 b (pow a 4)) (* -8787394560 c (pow b 4)) (* -3087007744 a (pow b 4)) (* -3087007744 b (pow c 4)) (* -2818572288 (pow a 2) (pow c 3)) (* -2818572288 (pow a 3) (pow b 2)) (* -2613379072 c (pow a 4)) (* 9410707456 a c (pow b 3)) (* 9410707456 b c (pow a 3))) 0)))
(check-sat)
(get-model)
(exit)